NAME : portcgen-29-5
COMMENT : portcgen N=29, seed=5
TYPE : TSP
DIMENSION : 29
EDGE_WEIGHT_TYPE : EUC_2D
NODE_COORD_SECTION
1 135353 15451
2 57420 -14709
3 27363 41390
4 -200242 260112
5 -212661 27991
6 17094 -33329
7 126382 161401
8 171546 183296
9 30344 -198204
10 190056 8421
11 20216 -135318
12 107629 167063
13 -88993 308850
14 -43429 149913
15 -62975 68622
16 353554 234219
17 -187662 169226
18 -78436 309885
19 262786 36662
20 64907 57457
21 -71646 152035
22 39356 -19519
23 86602 224877
24 -151262 -65329
25 -116983 -90867
26 166942 314866
27 -144849 40563
28 106198 326079
29 -172687 -23467
